4784 2036 1532 5700 4280 616 1120 2448 2952 3364 3868 158 2631 66 1028 3135 662 1578 3410 387 433 570 753 1303 2860 2906 3822 3914 4097 4143 4463 4692 4830 5013 5242 5379 5975 112 204 295 341 524 799 845 891 982 1074 1211 1257 1349 1440 1486 1669 1715 1761 1807 1898 1944 1990 2127 2173 2219 2265 2402 2494 2677 2723 3089 3181 3318 3547 3593 3639 3685 3776 4005 4051 4234 4326 4372 4509 4555 4601 4738 4921 4967 5059 5150 5196 5288 5425 5471 5517 5608 5654 5746 5837 5883 
